data;
set K:= K1 K2 K3 K4 K5 K6 K7 K8 K9 K10 ;

set F:= F1 F2 F3 ;

set Q:= Q1 Q2 ;

param T:= 45;
param V: 
	K1  K2  K3  K4  K5  K6  K7  K8  K9  K10 :=
Q1	1   1   1   1   1   1   0   0   0   0   
Q2	0   0   0   0   0   0   1   1   1   1   
; # if resorce k is of type q

param TF:= 
K1 6
K2 6
K3 6
K4 6
K5 6
K6 6
K7 12
K8 12
K9 12
K10 12
; # number of continuous time slots resource can fly

param TR:= 
K1 2
K2 2
K3 2
K4 2
K5 2
K6 2
K7 4
K8 4
K9 4
K10 4
; #  number of continuous time slots resource k needs to rest between flights

param P:= 
K1 36
K2 36
K3 36
K4 36
K5 36
K6 36
K7 36
K8 36
K9 36
K10 36
; #  number of continuous time slots a pilot can be present including rest times for resource k 

param N:= 
K1 4
K2 4
K3 4
K4 4
K5 4
K6 4
K7 2
K8 2
K9 2
K10 2
; # max number of flights resource k can fly in the total time period

param A: 
	K1  K2  K3  K4  K5  K6  K7  K8  K9  K10 :=
1	1   1   1   1   1   1   1   1   1   1   
2	1   1   1   1   1   1   1   1   1   1   
3	1   1   1   1   1   1   1   1   1   1   
4	1   1   1   1   1   1   1   1   1   1   
5	1   1   1   1   1   1   1   1   1   1   
6	1   1   1   1   1   1   1   1   1   1   
7	1   1   1   1   1   1   1   1   1   1   
8	1   1   1   1   1   1   1   1   1   1   
9	1   1   1   1   1   1   1   1   1   1   
10	1   1   1   1   1   1   1   1   1   1   
11	1   1   1   1   1   1   1   1   1   1   
12	1   1   1   1   1   1   1   1   1   1   
13	1   1   1   1   1   1   1   1   1   1   
14	1   1   1   1   1   1   1   1   1   1   
15	1   1   1   1   1   1   1   1   1   1   
16	1   1   1   1   1   1   1   1   1   1   
17	1   1   1   1   1   1   1   1   1   1   
18	1   1   1   1   1   1   1   1   1   1   
19	1   1   1   1   1   1   1   1   1   1   
20	1   1   1   1   1   1   1   1   1   1   
21	1   1   1   1   1   1   1   1   1   1   
22	1   1   1   1   1   1   1   1   1   1   
23	1   1   1   1   1   1   1   1   1   1   
24	1   1   1   1   1   1   1   1   1   1   
25	1   1   1   1   1   1   1   1   1   1   
26	1   1   1   1   1   1   1   1   1   1   
27	1   1   1   1   1   1   1   1   1   1   
28	1   1   1   1   1   1   1   1   1   1   
29	1   1   1   1   1   1   1   1   1   1   
30	1   1   1   1   1   1   1   1   1   1   
31	1   1   1   1   1   1   1   1   1   1   
32	1   1   1   1   1   1   1   1   1   1   
33	1   1   1   1   1   1   1   1   1   1   
34	1   1   1   1   1   1   1   1   1   1   
35	1   1   1   1   1   1   1   1   1   1   
36	1   1   1   1   1   1   1   1   1   1   
37	1   1   1   1   1   1   1   1   1   1   
38	1   1   1   1   1   1   1   1   1   1   
39	1   1   1   1   1   1   1   1   1   1   
40	1   1   1   1   1   1   1   1   1   1   
41	1   1   1   1   1   1   1   1   1   1   
42	1   1   1   1   1   1   1   1   1   1   
43	1   1   1   1   1   1   1   1   1   1   
44	1   1   1   1   1   1   1   1   1   1   
45	1   1   1   1   1   1   1   1   1   1   
; # availability of resorce k in time slot t

param B: 
	F1  F2  F3  :=
Q1	0   0   0   
Q2	0   0   0   
; # if front f requires resources of type q

param U: 
	F1  F2  F3  :=
K1	0   0   0   
K2	0   0   0   
K3	0   0   0   
K4	0   0   0   
K5	0   0   0   
K6	0   0   0   
K7	2   2   2   
K8	1   1   1   
K9	2   2   2   
K10	0   0   0   
; # transit time of resource

param C:= 
K1 900
K2 900
K3 900
K4 1500
K5 4500
K6 2100
K7 5500
K8 5500
K9 5500
K10 5500
; #  water capacity of resource k

param S:= 
F1 9
F2 7
F3 10
; # max number of resources that can fly at front f in the same time slot

param D:= 

[*,*,F1 ]:  K1    K2    K3    K4    K5    K6    K7    K8    K9    K10   :=
1           1.75  1.75  1.75  1.75  1.40  1.75  1.05  1.05  1.05  1.05  
2           1.75  1.75  1.75  1.75  1.40  1.75  1.05  1.05  1.05  1.05  
3           1.75  1.75  1.75  1.75  1.40  1.75  1.05  1.05  1.05  1.05  
4           1.75  1.75  1.75  1.75  1.40  1.75  1.05  1.05  1.05  1.05  
5           1.75  1.75  1.75  1.75  1.40  1.75  1.05  1.05  1.05  1.05  
6           1.75  1.75  1.75  1.75  1.40  1.75  1.05  1.05  1.05  1.05  
7           1.75  1.75  1.75  1.75  1.40  1.75  1.05  1.05  1.05  1.05  
8           1.75  1.75  1.75  1.75  1.40  1.75  1.05  1.05  1.05  1.05  
9           1.75  1.75  1.75  1.75  1.40  1.75  1.05  1.05  1.05  1.05  
10          1.75  1.75  1.75  1.75  1.40  1.75  1.05  1.05  1.05  1.05  
11          1.75  1.75  1.75  1.75  1.40  1.75  1.05  1.05  1.05  1.05  
12          1.75  1.75  1.75  1.75  1.40  1.75  1.05  1.05  1.05  1.05  
13          1.75  1.75  1.75  1.75  1.40  1.75  1.05  1.05  1.05  1.05  
14          1.75  1.75  1.75  1.75  1.40  1.75  1.05  1.05  1.05  1.05  
15          1.75  1.75  1.75  1.75  1.40  1.75  1.05  1.05  1.05  1.05  
16          1.75  1.75  1.75  1.75  1.40  1.75  1.05  1.05  1.05  1.05  
17          1.75  1.75  1.75  1.75  1.40  1.75  1.05  1.05  1.05  1.05  
18          1.75  1.75  1.75  1.75  1.40  1.75  1.05  1.05  1.05  1.05  
19          1.75  1.75  1.75  1.75  1.40  1.75  1.05  1.05  1.05  1.05  
20          1.75  1.75  1.75  1.75  1.40  1.75  1.05  1.05  1.05  1.05  
21          1.75  1.75  1.75  1.75  1.40  1.75  1.05  1.05  1.05  1.05  
22          1.75  1.75  1.75  1.75  1.40  1.75  1.05  1.05  1.05  1.05  
23          1.75  1.75  1.75  1.75  1.40  1.75  1.05  1.05  1.05  1.05  
24          1.75  1.75  1.75  1.75  1.40  1.75  1.05  1.05  1.05  1.05  
25          1.67  1.67  1.67  1.67  1.33  1.67  1.00  1.00  1.00  1.00  
26          1.67  1.67  1.67  1.67  1.33  1.67  1.00  1.00  1.00  1.00  
27          1.67  1.67  1.67  1.67  1.33  1.67  1.00  1.00  1.00  1.00  
28          1.67  1.67  1.67  1.67  1.33  1.67  1.00  1.00  1.00  1.00  
29          1.67  1.67  1.67  1.67  1.33  1.67  1.00  1.00  1.00  1.00  
30          1.67  1.67  1.67  1.67  1.33  1.67  1.00  1.00  1.00  1.00  
31          1.67  1.67  1.67  1.67  1.33  1.67  1.00  1.00  1.00  1.00  
32          1.67  1.67  1.67  1.67  1.33  1.67  1.00  1.00  1.00  1.00  
33          1.67  1.67  1.67  1.67  1.33  1.67  1.00  1.00  1.00  1.00  
34          1.75  1.75  1.75  1.75  1.40  1.75  1.05  1.05  1.05  1.05  
35          1.75  1.75  1.75  1.75  1.40  1.75  1.05  1.05  1.05  1.05  
36          1.75  1.75  1.75  1.75  1.40  1.75  1.05  1.05  1.05  1.05  
37          1.75  1.75  1.75  1.75  1.40  1.75  1.05  1.05  1.05  1.05  
38          1.75  1.75  1.75  1.75  1.40  1.75  1.05  1.05  1.05  1.05  
39          1.75  1.75  1.75  1.75  1.40  1.75  1.05  1.05  1.05  1.05  
40          1.75  1.75  1.75  1.75  1.40  1.75  1.05  1.05  1.05  1.05  
41          1.75  1.75  1.75  1.75  1.40  1.75  1.05  1.05  1.05  1.05  
42          1.75  1.75  1.75  1.75  1.40  1.75  1.05  1.05  1.05  1.05  
43          1.75  1.75  1.75  1.75  1.40  1.75  1.05  1.05  1.05  1.05  
44          1.75  1.75  1.75  1.75  1.40  1.75  1.05  1.05  1.05  1.05  
45          1.75  1.75  1.75  1.75  1.40  1.75  1.05  1.05  1.05  1.05  

[*,*,F2 ]:  K1    K2    K3    K4    K5    K6    K7    K8    K9    K10   :=
1           1.82  1.82  1.82  1.82  1.45  1.82  1.09  1.09  1.09  1.09  
2           1.82  1.82  1.82  1.82  1.45  1.82  1.09  1.09  1.09  1.09  
3           1.82  1.82  1.82  1.82  1.45  1.82  1.09  1.09  1.09  1.09  
4           1.82  1.82  1.82  1.82  1.45  1.82  1.09  1.09  1.09  1.09  
5           1.82  1.82  1.82  1.82  1.45  1.82  1.09  1.09  1.09  1.09  
6           1.82  1.82  1.82  1.82  1.45  1.82  1.09  1.09  1.09  1.09  
7           1.82  1.82  1.82  1.82  1.45  1.82  1.09  1.09  1.09  1.09  
8           1.82  1.82  1.82  1.82  1.45  1.82  1.09  1.09  1.09  1.09  
9           1.82  1.82  1.82  1.82  1.45  1.82  1.09  1.09  1.09  1.09  
10          1.82  1.82  1.82  1.82  1.45  1.82  1.09  1.09  1.09  1.09  
11          1.82  1.82  1.82  1.82  1.45  1.82  1.09  1.09  1.09  1.09  
12          1.82  1.82  1.82  1.82  1.45  1.82  1.09  1.09  1.09  1.09  
13          1.82  1.82  1.82  1.82  1.45  1.82  1.09  1.09  1.09  1.09  
14          1.82  1.82  1.82  1.82  1.45  1.82  1.09  1.09  1.09  1.09  
15          1.82  1.82  1.82  1.82  1.45  1.82  1.09  1.09  1.09  1.09  
16          1.82  1.82  1.82  1.82  1.45  1.82  1.09  1.09  1.09  1.09  
17          1.82  1.82  1.82  1.82  1.45  1.82  1.09  1.09  1.09  1.09  
18          1.82  1.82  1.82  1.82  1.45  1.82  1.09  1.09  1.09  1.09  
19          1.82  1.82  1.82  1.82  1.45  1.82  1.09  1.09  1.09  1.09  
20          1.82  1.82  1.82  1.82  1.45  1.82  1.09  1.09  1.09  1.09  
21          1.82  1.82  1.82  1.82  1.45  1.82  1.09  1.09  1.09  1.09  
22          1.82  1.82  1.82  1.82  1.45  1.82  1.09  1.09  1.09  1.09  
23          1.82  1.82  1.82  1.82  1.45  1.82  1.09  1.09  1.09  1.09  
24          1.82  1.82  1.82  1.82  1.45  1.82  1.09  1.09  1.09  1.09  
25          1.73  1.73  1.73  1.73  1.38  1.73  1.04  1.04  1.04  1.04  
26          1.73  1.73  1.73  1.73  1.38  1.73  1.04  1.04  1.04  1.04  
27          1.73  1.73  1.73  1.73  1.38  1.73  1.04  1.04  1.04  1.04  
28          1.73  1.73  1.73  1.73  1.38  1.73  1.04  1.04  1.04  1.04  
29          1.73  1.73  1.73  1.73  1.38  1.73  1.04  1.04  1.04  1.04  
30          1.73  1.73  1.73  1.73  1.38  1.73  1.04  1.04  1.04  1.04  
31          1.73  1.73  1.73  1.73  1.38  1.73  1.04  1.04  1.04  1.04  
32          1.73  1.73  1.73  1.73  1.38  1.73  1.04  1.04  1.04  1.04  
33          1.73  1.73  1.73  1.73  1.38  1.73  1.04  1.04  1.04  1.04  
34          1.82  1.82  1.82  1.82  1.45  1.82  1.09  1.09  1.09  1.09  
35          1.82  1.82  1.82  1.82  1.45  1.82  1.09  1.09  1.09  1.09  
36          1.82  1.82  1.82  1.82  1.45  1.82  1.09  1.09  1.09  1.09  
37          1.82  1.82  1.82  1.82  1.45  1.82  1.09  1.09  1.09  1.09  
38          1.82  1.82  1.82  1.82  1.45  1.82  1.09  1.09  1.09  1.09  
39          1.82  1.82  1.82  1.82  1.45  1.82  1.09  1.09  1.09  1.09  
40          1.82  1.82  1.82  1.82  1.45  1.82  1.09  1.09  1.09  1.09  
41          1.82  1.82  1.82  1.82  1.45  1.82  1.09  1.09  1.09  1.09  
42          1.82  1.82  1.82  1.82  1.45  1.82  1.09  1.09  1.09  1.09  
43          1.82  1.82  1.82  1.82  1.45  1.82  1.09  1.09  1.09  1.09  
44          1.82  1.82  1.82  1.82  1.45  1.82  1.09  1.09  1.09  1.09  
45          1.82  1.82  1.82  1.82  1.45  1.82  1.09  1.09  1.09  1.09  

[*,*,F3 ]:  K1    K2    K3    K4    K5    K6    K7    K8    K9    K10   :=
1           1.85  1.85  1.85  1.85  1.48  1.85  1.11  1.11  1.11  1.11  
2           1.85  1.85  1.85  1.85  1.48  1.85  1.11  1.11  1.11  1.11  
3           1.85  1.85  1.85  1.85  1.48  1.85  1.11  1.11  1.11  1.11  
4           1.85  1.85  1.85  1.85  1.48  1.85  1.11  1.11  1.11  1.11  
5           1.85  1.85  1.85  1.85  1.48  1.85  1.11  1.11  1.11  1.11  
6           1.85  1.85  1.85  1.85  1.48  1.85  1.11  1.11  1.11  1.11  
7           1.85  1.85  1.85  1.85  1.48  1.85  1.11  1.11  1.11  1.11  
8           1.85  1.85  1.85  1.85  1.48  1.85  1.11  1.11  1.11  1.11  
9           1.85  1.85  1.85  1.85  1.48  1.85  1.11  1.11  1.11  1.11  
10          1.85  1.85  1.85  1.85  1.48  1.85  1.11  1.11  1.11  1.11  
11          1.85  1.85  1.85  1.85  1.48  1.85  1.11  1.11  1.11  1.11  
12          1.85  1.85  1.85  1.85  1.48  1.85  1.11  1.11  1.11  1.11  
13          1.85  1.85  1.85  1.85  1.48  1.85  1.11  1.11  1.11  1.11  
14          1.85  1.85  1.85  1.85  1.48  1.85  1.11  1.11  1.11  1.11  
15          1.85  1.85  1.85  1.85  1.48  1.85  1.11  1.11  1.11  1.11  
16          1.85  1.85  1.85  1.85  1.48  1.85  1.11  1.11  1.11  1.11  
17          1.85  1.85  1.85  1.85  1.48  1.85  1.11  1.11  1.11  1.11  
18          1.85  1.85  1.85  1.85  1.48  1.85  1.11  1.11  1.11  1.11  
19          1.85  1.85  1.85  1.85  1.48  1.85  1.11  1.11  1.11  1.11  
20          1.85  1.85  1.85  1.85  1.48  1.85  1.11  1.11  1.11  1.11  
21          1.85  1.85  1.85  1.85  1.48  1.85  1.11  1.11  1.11  1.11  
22          1.85  1.85  1.85  1.85  1.48  1.85  1.11  1.11  1.11  1.11  
23          1.85  1.85  1.85  1.85  1.48  1.85  1.11  1.11  1.11  1.11  
24          1.85  1.85  1.85  1.85  1.48  1.85  1.11  1.11  1.11  1.11  
25          1.76  1.76  1.76  1.76  1.40  1.76  1.05  1.05  1.05  1.05  
26          1.76  1.76  1.76  1.76  1.40  1.76  1.05  1.05  1.05  1.05  
27          1.76  1.76  1.76  1.76  1.40  1.76  1.05  1.05  1.05  1.05  
28          1.76  1.76  1.76  1.76  1.40  1.76  1.05  1.05  1.05  1.05  
29          1.76  1.76  1.76  1.76  1.40  1.76  1.05  1.05  1.05  1.05  
30          1.76  1.76  1.76  1.76  1.40  1.76  1.05  1.05  1.05  1.05  
31          1.76  1.76  1.76  1.76  1.40  1.76  1.05  1.05  1.05  1.05  
32          1.76  1.76  1.76  1.76  1.40  1.76  1.05  1.05  1.05  1.05  
33          1.76  1.76  1.76  1.76  1.40  1.76  1.05  1.05  1.05  1.05  
34          1.85  1.85  1.85  1.85  1.48  1.85  1.11  1.11  1.11  1.11  
35          1.85  1.85  1.85  1.85  1.48  1.85  1.11  1.11  1.11  1.11  
36          1.85  1.85  1.85  1.85  1.48  1.85  1.11  1.11  1.11  1.11  
37          1.85  1.85  1.85  1.85  1.48  1.85  1.11  1.11  1.11  1.11  
38          1.85  1.85  1.85  1.85  1.48  1.85  1.11  1.11  1.11  1.11  
39          1.85  1.85  1.85  1.85  1.48  1.85  1.11  1.11  1.11  1.11  
40          1.85  1.85  1.85  1.85  1.48  1.85  1.11  1.11  1.11  1.11  
41          1.85  1.85  1.85  1.85  1.48  1.85  1.11  1.11  1.11  1.11  
42          1.85  1.85  1.85  1.85  1.48  1.85  1.11  1.11  1.11  1.11  
43          1.85  1.85  1.85  1.85  1.48  1.85  1.11  1.11  1.11  1.11  
44          1.85  1.85  1.85  1.85  1.48  1.85  1.11  1.11  1.11  1.11  
45          1.85  1.85  1.85  1.85  1.48  1.85  1.11  1.11  1.11  1.11  
; # downloads resource k can do at front f in time t if intermediate time slot

param E:= 

[*,*,F1 ]:  K1    K2    K3    K4    K5    K6    K7    K8    K9    K10   :=
1           0.79  0.16  0.19  0.75  0.17  0.33  0.21  0.29  0.37  0.15  
2           0.79  0.16  0.19  0.75  0.17  0.33  0.21  0.29  0.37  0.15  
3           0.79  0.16  0.19  0.75  0.17  0.33  0.21  0.29  0.37  0.15  
4           0.79  0.16  0.19  0.75  0.17  0.33  0.21  0.29  0.37  0.15  
5           0.79  0.16  0.19  0.75  0.17  0.33  0.21  0.29  0.37  0.15  
6           0.79  0.16  0.19  0.75  0.17  0.33  0.21  0.29  0.37  0.15  
7           0.79  0.16  0.19  0.75  0.17  0.33  0.21  0.29  0.37  0.15  
8           0.79  0.16  0.19  0.75  0.17  0.33  0.21  0.29  0.37  0.15  
9           0.79  0.16  0.19  0.75  0.17  0.33  0.21  0.29  0.37  0.15  
10          0.79  0.16  0.19  0.75  0.17  0.33  0.21  0.29  0.37  0.15  
11          0.79  0.16  0.19  0.75  0.17  0.33  0.21  0.29  0.37  0.15  
12          0.79  0.16  0.19  0.75  0.17  0.33  0.21  0.29  0.37  0.15  
13          0.79  0.16  0.19  0.75  0.17  0.33  0.21  0.29  0.37  0.15  
14          0.79  0.16  0.19  0.75  0.17  0.33  0.21  0.29  0.37  0.15  
15          0.79  0.16  0.19  0.75  0.17  0.33  0.21  0.29  0.37  0.15  
16          0.79  0.16  0.19  0.75  0.17  0.33  0.21  0.29  0.37  0.15  
17          0.79  0.16  0.19  0.75  0.17  0.33  0.21  0.29  0.37  0.15  
18          0.79  0.16  0.19  0.75  0.17  0.33  0.21  0.29  0.37  0.15  
19          0.79  0.16  0.19  0.75  0.17  0.33  0.21  0.29  0.37  0.15  
20          0.79  0.16  0.19  0.75  0.17  0.33  0.21  0.29  0.37  0.15  
21          0.79  0.16  0.19  0.75  0.17  0.33  0.21  0.29  0.37  0.15  
22          0.79  0.16  0.19  0.75  0.17  0.33  0.21  0.29  0.37  0.15  
23          0.79  0.16  0.19  0.75  0.17  0.33  0.21  0.29  0.37  0.15  
24          0.79  0.16  0.19  0.75  0.17  0.33  0.21  0.29  0.37  0.15  
25          0.75  0.15  0.18  0.72  0.16  0.32  0.20  0.28  0.35  0.14  
26          0.75  0.15  0.18  0.72  0.16  0.32  0.20  0.28  0.35  0.14  
27          0.75  0.15  0.18  0.72  0.16  0.32  0.20  0.28  0.35  0.14  
28          0.75  0.15  0.18  0.72  0.16  0.32  0.20  0.28  0.35  0.14  
29          0.75  0.15  0.18  0.72  0.16  0.32  0.20  0.28  0.35  0.14  
30          0.75  0.15  0.18  0.72  0.16  0.32  0.20  0.28  0.35  0.14  
31          0.75  0.15  0.18  0.72  0.16  0.32  0.20  0.28  0.35  0.14  
32          0.75  0.15  0.18  0.72  0.16  0.32  0.20  0.28  0.35  0.14  
33          0.75  0.15  0.18  0.72  0.16  0.32  0.20  0.28  0.35  0.14  
34          0.79  0.16  0.19  0.75  0.17  0.33  0.21  0.29  0.37  0.15  
35          0.79  0.16  0.19  0.75  0.17  0.33  0.21  0.29  0.37  0.15  
36          0.79  0.16  0.19  0.75  0.17  0.33  0.21  0.29  0.37  0.15  
37          0.79  0.16  0.19  0.75  0.17  0.33  0.21  0.29  0.37  0.15  
38          0.79  0.16  0.19  0.75  0.17  0.33  0.21  0.29  0.37  0.15  
39          0.79  0.16  0.19  0.75  0.17  0.33  0.21  0.29  0.37  0.15  
40          0.79  0.16  0.19  0.75  0.17  0.33  0.21  0.29  0.37  0.15  
41          0.79  0.16  0.19  0.75  0.17  0.33  0.21  0.29  0.37  0.15  
42          0.79  0.16  0.19  0.75  0.17  0.33  0.21  0.29  0.37  0.15  
43          0.79  0.16  0.19  0.75  0.17  0.33  0.21  0.29  0.37  0.15  
44          0.79  0.16  0.19  0.75  0.17  0.33  0.21  0.29  0.37  0.15  
45          0.79  0.16  0.19  0.75  0.17  0.33  0.21  0.29  0.37  0.15  

[*,*,F2 ]:  K1    K2    K3    K4    K5    K6    K7    K8    K9    K10   :=
1           0.86  0.22  0.16  0.89  0.22  0.33  0.23  0.29  0.35  0.19  
2           0.86  0.22  0.16  0.89  0.22  0.33  0.23  0.29  0.35  0.19  
3           0.86  0.22  0.16  0.89  0.22  0.33  0.23  0.29  0.35  0.19  
4           0.86  0.22  0.16  0.89  0.22  0.33  0.23  0.29  0.35  0.19  
5           0.86  0.22  0.16  0.89  0.22  0.33  0.23  0.29  0.35  0.19  
6           0.86  0.22  0.16  0.89  0.22  0.33  0.23  0.29  0.35  0.19  
7           0.86  0.22  0.16  0.89  0.22  0.33  0.23  0.29  0.35  0.19  
8           0.86  0.22  0.16  0.89  0.22  0.33  0.23  0.29  0.35  0.19  
9           0.86  0.22  0.16  0.89  0.22  0.33  0.23  0.29  0.35  0.19  
10          0.86  0.22  0.16  0.89  0.22  0.33  0.23  0.29  0.35  0.19  
11          0.86  0.22  0.16  0.89  0.22  0.33  0.23  0.29  0.35  0.19  
12          0.86  0.22  0.16  0.89  0.22  0.33  0.23  0.29  0.35  0.19  
13          0.86  0.22  0.16  0.89  0.22  0.33  0.23  0.29  0.35  0.19  
14          0.86  0.22  0.16  0.89  0.22  0.33  0.23  0.29  0.35  0.19  
15          0.86  0.22  0.16  0.89  0.22  0.33  0.23  0.29  0.35  0.19  
16          0.86  0.22  0.16  0.89  0.22  0.33  0.23  0.29  0.35  0.19  
17          0.86  0.22  0.16  0.89  0.22  0.33  0.23  0.29  0.35  0.19  
18          0.86  0.22  0.16  0.89  0.22  0.33  0.23  0.29  0.35  0.19  
19          0.86  0.22  0.16  0.89  0.22  0.33  0.23  0.29  0.35  0.19  
20          0.86  0.22  0.16  0.89  0.22  0.33  0.23  0.29  0.35  0.19  
21          0.86  0.22  0.16  0.89  0.22  0.33  0.23  0.29  0.35  0.19  
22          0.86  0.22  0.16  0.89  0.22  0.33  0.23  0.29  0.35  0.19  
23          0.86  0.22  0.16  0.89  0.22  0.33  0.23  0.29  0.35  0.19  
24          0.86  0.22  0.16  0.89  0.22  0.33  0.23  0.29  0.35  0.19  
25          0.81  0.21  0.16  0.85  0.21  0.31  0.22  0.28  0.33  0.18  
26          0.81  0.21  0.16  0.85  0.21  0.31  0.22  0.28  0.33  0.18  
27          0.81  0.21  0.16  0.85  0.21  0.31  0.22  0.28  0.33  0.18  
28          0.81  0.21  0.16  0.85  0.21  0.31  0.22  0.28  0.33  0.18  
29          0.81  0.21  0.16  0.85  0.21  0.31  0.22  0.28  0.33  0.18  
30          0.81  0.21  0.16  0.85  0.21  0.31  0.22  0.28  0.33  0.18  
31          0.81  0.21  0.16  0.85  0.21  0.31  0.22  0.28  0.33  0.18  
32          0.81  0.21  0.16  0.85  0.21  0.31  0.22  0.28  0.33  0.18  
33          0.81  0.21  0.16  0.85  0.21  0.31  0.22  0.28  0.33  0.18  
34          0.86  0.22  0.16  0.89  0.22  0.33  0.23  0.29  0.35  0.19  
35          0.86  0.22  0.16  0.89  0.22  0.33  0.23  0.29  0.35  0.19  
36          0.86  0.22  0.16  0.89  0.22  0.33  0.23  0.29  0.35  0.19  
37          0.86  0.22  0.16  0.89  0.22  0.33  0.23  0.29  0.35  0.19  
38          0.86  0.22  0.16  0.89  0.22  0.33  0.23  0.29  0.35  0.19  
39          0.86  0.22  0.16  0.89  0.22  0.33  0.23  0.29  0.35  0.19  
40          0.86  0.22  0.16  0.89  0.22  0.33  0.23  0.29  0.35  0.19  
41          0.86  0.22  0.16  0.89  0.22  0.33  0.23  0.29  0.35  0.19  
42          0.86  0.22  0.16  0.89  0.22  0.33  0.23  0.29  0.35  0.19  
43          0.86  0.22  0.16  0.89  0.22  0.33  0.23  0.29  0.35  0.19  
44          0.86  0.22  0.16  0.89  0.22  0.33  0.23  0.29  0.35  0.19  
45          0.86  0.22  0.16  0.89  0.22  0.33  0.23  0.29  0.35  0.19  

[*,*,F3 ]:  K1    K2    K3    K4    K5    K6    K7    K8    K9    K10   :=
1           1.00  0.26  0.06  0.87  0.18  0.35  0.18  0.30  0.37  0.21  
2           1.00  0.26  0.06  0.87  0.18  0.35  0.18  0.30  0.37  0.21  
3           1.00  0.26  0.06  0.87  0.18  0.35  0.18  0.30  0.37  0.21  
4           1.00  0.26  0.06  0.87  0.18  0.35  0.18  0.30  0.37  0.21  
5           1.00  0.26  0.06  0.87  0.18  0.35  0.18  0.30  0.37  0.21  
6           1.00  0.26  0.06  0.87  0.18  0.35  0.18  0.30  0.37  0.21  
7           1.00  0.26  0.06  0.87  0.18  0.35  0.18  0.30  0.37  0.21  
8           1.00  0.26  0.06  0.87  0.18  0.35  0.18  0.30  0.37  0.21  
9           1.00  0.26  0.06  0.87  0.18  0.35  0.18  0.30  0.37  0.21  
10          1.00  0.26  0.06  0.87  0.18  0.35  0.18  0.30  0.37  0.21  
11          1.00  0.26  0.06  0.87  0.18  0.35  0.18  0.30  0.37  0.21  
12          1.00  0.26  0.06  0.87  0.18  0.35  0.18  0.30  0.37  0.21  
13          1.00  0.26  0.06  0.87  0.18  0.35  0.18  0.30  0.37  0.21  
14          1.00  0.26  0.06  0.87  0.18  0.35  0.18  0.30  0.37  0.21  
15          1.00  0.26  0.06  0.87  0.18  0.35  0.18  0.30  0.37  0.21  
16          1.00  0.26  0.06  0.87  0.18  0.35  0.18  0.30  0.37  0.21  
17          1.00  0.26  0.06  0.87  0.18  0.35  0.18  0.30  0.37  0.21  
18          1.00  0.26  0.06  0.87  0.18  0.35  0.18  0.30  0.37  0.21  
19          1.00  0.26  0.06  0.87  0.18  0.35  0.18  0.30  0.37  0.21  
20          1.00  0.26  0.06  0.87  0.18  0.35  0.18  0.30  0.37  0.21  
21          1.00  0.26  0.06  0.87  0.18  0.35  0.18  0.30  0.37  0.21  
22          1.00  0.26  0.06  0.87  0.18  0.35  0.18  0.30  0.37  0.21  
23          1.00  0.26  0.06  0.87  0.18  0.35  0.18  0.30  0.37  0.21  
24          1.00  0.26  0.06  0.87  0.18  0.35  0.18  0.30  0.37  0.21  
25          0.95  0.25  0.05  0.83  0.17  0.33  0.17  0.28  0.35  0.20  
26          0.95  0.25  0.05  0.83  0.17  0.33  0.17  0.28  0.35  0.20  
27          0.95  0.25  0.05  0.83  0.17  0.33  0.17  0.28  0.35  0.20  
28          0.95  0.25  0.05  0.83  0.17  0.33  0.17  0.28  0.35  0.20  
29          0.95  0.25  0.05  0.83  0.17  0.33  0.17  0.28  0.35  0.20  
30          0.95  0.25  0.05  0.83  0.17  0.33  0.17  0.28  0.35  0.20  
31          0.95  0.25  0.05  0.83  0.17  0.33  0.17  0.28  0.35  0.20  
32          0.95  0.25  0.05  0.83  0.17  0.33  0.17  0.28  0.35  0.20  
33          0.95  0.25  0.05  0.83  0.17  0.33  0.17  0.28  0.35  0.20  
34          1.00  0.26  0.06  0.87  0.18  0.35  0.18  0.30  0.37  0.21  
35          1.00  0.26  0.06  0.87  0.18  0.35  0.18  0.30  0.37  0.21  
36          1.00  0.26  0.06  0.87  0.18  0.35  0.18  0.30  0.37  0.21  
37          1.00  0.26  0.06  0.87  0.18  0.35  0.18  0.30  0.37  0.21  
38          1.00  0.26  0.06  0.87  0.18  0.35  0.18  0.30  0.37  0.21  
39          1.00  0.26  0.06  0.87  0.18  0.35  0.18  0.30  0.37  0.21  
40          1.00  0.26  0.06  0.87  0.18  0.35  0.18  0.30  0.37  0.21  
41          1.00  0.26  0.06  0.87  0.18  0.35  0.18  0.30  0.37  0.21  
42          1.00  0.26  0.06  0.87  0.18  0.35  0.18  0.30  0.37  0.21  
43          1.00  0.26  0.06  0.87  0.18  0.35  0.18  0.30  0.37  0.21  
44          1.00  0.26  0.06  0.87  0.18  0.35  0.18  0.30  0.37  0.21  
45          1.00  0.26  0.06  0.87  0.18  0.35  0.18  0.30  0.37  0.21  
; # downloads resource k can do at front f in time t if starting or ending flight

param W: 
	F1        F2        F3        :=
1	294.99    294.99    294.99    
2	1120.94   1120.94   1120.94   
3	1120.94   1120.94   1120.94   
4	1120.94   1120.94   1120.94   
5	1120.94   1120.94   1120.94   
6	1120.94   1120.94   1120.94   
7	1120.94   1120.94   1120.94   
8	1120.94   1120.94   1120.94   
9	1120.94   1120.94   1120.94   
10	1120.94   1120.94   1120.94   
11	1120.94   1120.94   1120.94   
12	1120.94   1120.94   1120.94   
13	1120.94   1120.94   1120.94   
14	1120.94   1120.94   1120.94   
15	1120.94   1120.94   1120.94   
16	1120.94   1120.94   1120.94   
17	1120.94   1120.94   1120.94   
18	1120.94   1120.94   1120.94   
19	1297.93   1297.93   1297.93   
20	1297.93   1297.93   1297.93   
21	1297.93   1297.93   1297.93   
22	1297.93   1297.93   1297.93   
23	1297.93   1297.93   1297.93   
24	1297.93   1297.93   1297.93   
25	1297.93   1297.93   1297.93   
26	1297.93   1297.93   1297.93   
27	1297.93   1297.93   1297.93   
28	1297.93   1297.93   1297.93   
29	1297.93   1297.93   1297.93   
30	1297.93   1297.93   1297.93   
31	1297.93   1297.93   1297.93   
32	1297.93   1297.93   1297.93   
33	1297.93   1297.93   1297.93   
34	1297.93   1297.93   1297.93   
35	1120.94   1120.94   1120.94   
36	1120.94   1120.94   1120.94   
37	1120.94   1120.94   1120.94   
38	1120.94   1120.94   1120.94   
39	1120.94   1120.94   1120.94   
40	1120.94   1120.94   1120.94   
41	1120.94   1120.94   1120.94   
42	1120.94   1120.94   1120.94   
43	1120.94   1120.94   1120.94   
44	1120.94   1120.94   1120.94   
45	294.99    294.99    294.99    
; # water needed at front f in time slot t

param M := 100000000; 

param a1:= 10000000;

param a2:= 100;

param a3:= 0.0001;
